(set-info :smt-lib-version 2.6)
(set-logic UFNIA)
(set-info :source |
Generated by: Geoff Sutcliffe
Generated on: 2026-03-11
Generator: TPTPWorld
Application: Benchmarking automated theorem provers
Time limit: 120.0

These benchmarks are translations from the TPTP Library (Thousands of
Problems for Theorem Provers), see http://www.cs.miami.edu/~tptp/

The TPTP is maintained by Geoff Sutcliffe, and he contributed this
selection of benchmarks to SMT-LIB.  They were exported from the
v9.2.1 realease of TPTP.
|)
(set-info :category "industrial")
(set-info :status "unknown")
; SZS status Success
(declare-sort $$unsorted 0)
(declare-fun tptp.u0 (Int Int) Int)
(declare-fun tptp.v0 () Int)
(declare-fun tptp.h0 () Int)
(declare-fun tptp.fast (Int) Int)
(declare-fun tptp.g0 () Int)
(declare-fun |tptp.'mod:(Int*Int)>Int'| (Int Int) Int)
(declare-fun tptp.small (Int) Int)
(declare-fun tptp.f0 (Int) Int)
(assert (forall ((X Int)) (= (tptp.f0 X) (* X X))))
(assert (= tptp.g0 2))
(assert (= tptp.h0 2))
(assert (forall ((X Int) (Y Int)) (let ((_let_1 (tptp.u0 X Y))) (let ((_let_2 (<= X 0))) (and (=> _let_2 (= _let_1 Y)) (=> (not _let_2) (= _let_1 (tptp.f0 (tptp.u0 (- X 1) Y)))))))))
(assert (= tptp.v0 (tptp.u0 tptp.g0 tptp.h0)))
(assert (forall ((X Int)) (= (tptp.small X) (+ 2 (+ (- X (|tptp.'mod:(Int*Int)>Int'| (+ 1 X) tptp.v0)) X)))))
(assert (forall ((X Int)) (= (tptp.fast X) (+ 2 (+ (- X (|tptp.'mod:(Int*Int)>Int'| (+ 1 X) (* 2 (* 2 (+ 2 2))))) X)))))
(assert (not (not (exists ((C Int)) (and (>= C 0) (not (= (tptp.small C) (tptp.fast C))))))))
(check-sat)
(exit)
